3193
6912
6471
3581
2355
8445
5353
8438
3278
10056
7728
3239
1621
6552
8370
1480
5176
5037
4377
6353
5423
2677
3311
9668
6844
9672
9277
9302
5183
6455
2686
9743
2824
1819
9253
8393
5932
7632
896
4525
7098
6944
4244
592
991
7436
8883
7230
8483
4370
5595
